V1 Se2                                  
   1.00000000000000     
     3.3290850738898889   -0.0000004003818948    0.0000000733483923
    -1.6645428858500628    2.8830720379648302   -0.0000000727345579
     0.0000004894313639   -0.0000002625361902   23.1180000394582592
   V    Se
     1     2
Direct
  0.9999999999972147  0.9999999999809503  0.0683006641948438
  0.3333333335928117  0.6666666664047867  0.1367575226858406
  0.6666666666666572  0.3333333333333428  0.9998510977857009
 
  0.00000000E+00  0.00000000E+00  0.00000000E+00
  0.00000000E+00  0.00000000E+00  0.00000000E+00
  0.00000000E+00  0.00000000E+00  0.00000000E+00
