four_tier                               
  0.990000000000000     
     3.4470000267000001    0.0000000000000000    0.0000000000000000
    -1.7235000134000000    2.9851895900000001    0.0000000000000000
     0.0000000000000000    0.0000000000000000   41.4358978270999998
   V    Se
     4     8
Direct
 -0.0000000000000000  0.0000000000000000  0.0425689060095936
 -0.0000000000000000  0.0000000000000000  0.1895015470966644
 -0.0000000000000000  0.0000000000000000  0.3363259356813839
 -0.0000000000000000  0.0000000000000000  0.4832550656347916
  0.6666669789999986  0.3333329900000024  0.0045470408794774
  0.3333330110000006  0.6666670589999981  0.0799403266604142
  0.6666669789999986  0.3333329900000024  0.1518835127082651
  0.3333330110000006  0.6666670589999981  0.2270630369923433
  0.6666669789999986  0.3333329900000024  0.2987633373921641
  0.3333330110000006  0.6666670589999981  0.3739447654897193
  0.6666669789999986  0.3333329900000024  0.4458876980604304
  0.3333330110000006  0.6666670589999981  0.5212796833947404
 
  0.00000000E+00  0.00000000E+00  0.00000000E+00
  0.00000000E+00  0.00000000E+00  0.00000000E+00
  0.00000000E+00  0.00000000E+00  0.00000000E+00
  0.00000000E+00  0.00000000E+00  0.00000000E+00
  0.00000000E+00  0.00000000E+00  0.00000000E+00
  0.00000000E+00  0.00000000E+00  0.00000000E+00
  0.00000000E+00  0.00000000E+00  0.00000000E+00
  0.00000000E+00  0.00000000E+00  0.00000000E+00
  0.00000000E+00  0.00000000E+00  0.00000000E+00
  0.00000000E+00  0.00000000E+00  0.00000000E+00
  0.00000000E+00  0.00000000E+00  0.00000000E+00
  0.00000000E+00  0.00000000E+00  0.00000000E+00
