four_tier                               
   0.99000000000000     
     3.4470000267000001    0.0000000000000000    0.0000000000000000
    -1.7235000134000000    2.9851895900000001    0.0000000000000000
     0.0000000000000000    0.0000000000000000   41.4358978270999998
   V    Se
     4     8
Direct
 -0.0000000000000000  0.0000000000000000  0.0459839613958943
 -0.0000000000000000 -0.0000000000000000  0.1905614211279531
 -0.0000000000000000  0.0000000000000000  0.3352660616500951
 -0.0000000000000000 -0.0000000000000000  0.4798400102484910
  0.6666669789999986  0.3333329900000024  0.0086301274229532
  0.3333330110000006  0.6666670589999981  0.0826973914451816
  0.6666669789999986  0.3333329900000024  0.1536058066579024
  0.3333330110000006  0.6666670589999981  0.2274690044054882
  0.6666669789999986  0.3333329900000024  0.2983573699790196
  0.3333330110000006  0.6666670589999981  0.3722224715400820
  0.6666669789999986  0.3333329900000024  0.4431306332756631
  0.3333330110000006  0.6666670589999981  0.5171965968512646
 
  0.00000000E+00  0.00000000E+00  0.00000000E+00
  0.00000000E+00  0.00000000E+00  0.00000000E+00
  0.00000000E+00  0.00000000E+00  0.00000000E+00
  0.00000000E+00  0.00000000E+00  0.00000000E+00
  0.00000000E+00  0.00000000E+00  0.00000000E+00
  0.00000000E+00  0.00000000E+00  0.00000000E+00
  0.00000000E+00  0.00000000E+00  0.00000000E+00
  0.00000000E+00  0.00000000E+00  0.00000000E+00
  0.00000000E+00  0.00000000E+00  0.00000000E+00
  0.00000000E+00  0.00000000E+00  0.00000000E+00
  0.00000000E+00  0.00000000E+00  0.00000000E+00
  0.00000000E+00  0.00000000E+00  0.00000000E+00
